WARNING: for repeatability, setting FPU to use double precision
============================[ Problem Statistics ]=============================
|                                                                             |
|  Number of variables:          8399                                         |
|  Number of clauses:           66454                                         |
|  Parse time:                   0.03 s                                       |
|  Eliminated clauses:           0.01 Mb                                      |
|  Simplification time:          0.03 s                                       |
|                                                                             |
============================[ Search Statistics ]==============================
| Conflicts |          ORIGINAL         |          LEARNT          | Progress |
|           |    Vars  Clauses Literals |    Limit  Clauses Lit/Cl |          |
===============================================================================
===============================================================================
restarts              : 1
conflicts             : 67             (1151 /sec)
decisions             : 203            (0.00 % random) (3488 /sec)
propagations          : 8877           (152541 /sec)
conflict literals     : 379            (19.53 % deleted)
Memory used           : 26.00 MB
CPU time              : 0.058194 s

UNSATISFIABLE
WARNING: for repeatability, setting FPU to use double precision
============================[ Problem Statistics ]=============================
|                                                                             |
|  Number of variables:          8399                                         |
|  Number of clauses:           66454                                         |
|  Parse time:                   0.02 s                                       |
|  Eliminated clauses:           0.01 Mb                                      |
|  Simplification time:          0.02 s                                       |
|                                                                             |
============================[ Search Statistics ]==============================
| Conflicts |          ORIGINAL         |          LEARNT          | Progress |
|           |    Vars  Clauses Literals |    Limit  Clauses Lit/Cl |          |
===============================================================================
===============================================================================
restarts              : 1
conflicts             : 67             (1785 /sec)
decisions             : 203            (0.00 % random) (5410 /sec)
propagations          : 8877           (236562 /sec)
conflict literals     : 379            (19.53 % deleted)
Memory used           : 26.00 MB
CPU time              : 0.037525 s

UNSATISFIABLE
